m = 6; % number of couriers
n = 8; % number of packages

l = [9, 7, 11, 8, 6, 15]; % maximum carriable weight per courier
s = [3, 6, 6, 8, 5, 3, 6, 5]; % weight of each package

D = % distance matrix 
	 [| 9, 11, 12, 8, 7, 10, 4, 9, 10
	 | 5, 11, 8, 10, 11, 9, 10, 3, 12
	 | 7, 11, 4, 12, 7, 10, 4, 4, 12
	 | 7, 12, 11, 7, 9, 4, 10, 11, 8
	 | 3, 3, 3, 10, 8, 12, 4, 3, 8
	 | 11, 6, 9, 8, 9, 11, 7, 11, 6
	 | 6, 3, 11, 3, 4, 3, 4, 8, 11
	 | 3, 9, 7, 9, 12, 4, 10, 12, 11
	 | 10, 3, 3, 7, 5, 5, 6, 3, 3
	 |];